c 
c U(n,d) graph
c graph gen seed     : 16960
c number of vertices : 25
c max number of edges: 500
c Euclidean distance : 0.400000
c data structure     : sparse
c
c           Graph Stats
c number of vertices  : 25
c nonisolated vertices: 25
c number of edges     : 119
c edge density        : 0.396667
c max degree          : 16
c avg degree          : 9.52
c min degree          : 2
p col 25 119
e 1 24
e 1 21
e 1 20
e 1 19
e 1 17
e 1 16
e 1 15
e 1 14
e 1 12
e 1 11
e 1 10
e 1 2
e 2 25
e 2 21
e 2 20
e 2 19
e 2 17
e 2 16
e 2 15
e 2 14
e 2 11
e 2 10
e 2 7
e 2 5
e 2 4
e 3 24
e 3 23
e 3 18
e 3 9
e 3 8
e 4 25
e 4 21
e 4 20
e 4 19
e 4 17
e 4 16
e 4 15
e 4 14
e 4 11
e 4 7
e 4 5
e 5 21
e 5 19
e 5 17
e 5 16
e 5 15
e 5 14
e 5 11
e 6 22
e 6 12
e 7 25
e 7 21
e 7 20
e 7 17
e 7 16
e 7 15
e 7 14
e 7 13
e 7 11
e 8 24
e 8 23
e 8 18
e 8 9
e 9 24
e 9 23
e 9 18
e 9 10
e 10 24
e 10 21
e 10 20
e 10 19
e 10 17
e 10 16
e 10 15
e 10 12
e 10 11
e 11 25
e 11 21
e 11 20
e 11 19
e 11 17
e 11 16
e 11 15
e 11 14
e 12 24
e 12 22
e 12 20
e 12 17
e 13 25
e 13 22
e 13 20
e 14 25
e 14 21
e 14 20
e 14 19
e 14 17
e 14 16
e 14 15
e 15 21
e 15 20
e 15 19
e 15 17
e 15 16
e 16 21
e 16 20
e 16 19
e 16 17
e 17 21
e 17 20
e 17 19
e 18 24
e 18 23
e 19 21
e 19 20
e 20 25
e 20 22
e 20 21
e 21 25
e 23 24
